c WARNING: for repeatability, setting FPU to use double precision
d VARIABLES            138690       
d CONSTRAINTS          504520       
c ============================[ Problem Statistics ]=============================
c |                                                                             |
c |  Number of variables:        138690                                         |
c |  Number of clauses:          504520                                         |
c |  Parse time:                   0.09 s                                       |
c |                                                                             |
c ============================[ Search Statistics ]==============================
c | Conflicts |          ORIGINAL         |          LEARNT          | Progress |
c |           |    Vars  Clauses Literals |    Limit  Clauses Lit/Cl |          |
c ===============================================================================
c |       100 |  109114   428094  1075249 |   156967      100     31 | 21.325 % |
c |       250 |  109114   428094  1075249 |   172664      250     18 | 21.325 % |
c |       475 |  109114   428094  1075249 |   189931      475     36 | 21.325 % |
c |       812 |  109114   428094  1075249 |   208924      812     27 | 21.325 % |
c |      1318 |  109114   428094  1075249 |   229816     1318     21 | 21.325 % |
c |      2077 |  109114   428094  1075249 |   252798     2077     26 | 21.325 % |
c |      3216 |  109114   428094  1075249 |   278078     3216     38 | 21.325 % |
c |      4924 |  109114   428094  1075249 |   305885     4924     33 | 21.325 % |
c |      7486 |  109114   428094  1075249 |   336474     7486     42 | 21.325 % |
c |     11330 |  109114   428094  1075249 |   370121    11330     61 | 21.325 % |
c |     17096 |  109114   428094  1075249 |   407134    17096     57 | 21.325 % |
c |     25745 |  109114   428094  1075249 |   447847    25745     75 | 21.325 % |
c |     38719 |  109114   428094  1075249 |   492632    38719     92 | 21.325 % |
c |     58180 |  109114   428094  1075249 |   541895    58180    120 | 21.325 % |
c |     87372 |  109114   428094  1075249 |   596084    87372    144 | 21.325 % |
c |    131161 |  109114   428094  1075249 |   655693   131161    175 | 21.325 % |
c ===============================================================================
c restarts              : 443
c conflicts             : 161388         (2170 /sec)
c decisions             : 1170113        (0.00 % random) (15734 /sec)
c propagations          : 401889886      (5404023 /sec)
c conflict literals     : 27509164       (15.42 % deleted)
d RESTARTS             443
d FAILURES             161388       
d NODES                1170113      
d BACKTRACKS           1170113      
d PROPAGATIONS         401889886    
d NOGOODSIZE           170.45 
d MEMORY               174.00 
d TIME                 74.3686 

s SATISFIABLE
